NAME : ClusterId_1010 
COMMENT : (Gillet and Johnson) 
TYPE : CVRP 
DIMENSION : 17 
EDGE_WEIGHT_TYPE : EUC_2D 
CAPACITY : 500 
NODE_COORD_SECTION 
1010 1365 5794 
901 74 6321 
98 10 5944 
696 161 6189 
904 218 6078 
920 321 5359 
758 325 5271 
521 388 5368 
988 281 5059 
641 352 5192 
379 574 5443 
186 792 5557 
702 652 5257 
813 849 5605 
532 884 5511 
369 1406 5945 
498 1196 5623 
DEMAND_SECTION 
1010 1250
901 56
98 56
696 47
904 52
920 33
758 49
521 33
988 44
641 53
379 41
186 27
702 47
813 47
532 34
369 52
498 34
DEPOT_SECTION 
1010
 -1
EOF